14° run output:
{
    "Function": "euclidB300.tsp",
    "Problem dimension": [
        204,
        162,
        219,
        120,
        222,
        271,
        171,
        40,
        249,
        18,
        228,
        92,
        20,
        37,
        55,
        176,
        236,
        221,
        255,
        178,
        168,
        63,
        141,
        263,
        207,
        73,
        25,
        117,
        208,
        138,
        126,
        182,
        237,
        118,
        163,
        83,
        107,
        277,
        97,
        29,
        78,
        235,
        284,
        119,
        194,
        299,
        175,
        49,
        105,
        59,
        239,
        293,
        157,
        79,
        264,
        135,
        33,
        143,
        50,
        250,
        153,
        164,
        103,
        54,
        38,
        206,
        257,
        224,
        160,
        1,
        136,
        294,
        123,
        191,
        152,
        46,
        252,
        56,
        62,
        173,
        227,
        71,
        31,
        22,
        58,
        265,
        106,
        102,
        242,
        86,
        4,
        94,
        3,
        292,
        215,
        174,
        223,
        57,
        203,
        124,
        100,
        146,
        122,
        289,
        82,
        44,
        272,
        276,
        131,
        295,
        114,
        195,
        7,
        181,
        217,
        298,
        241,
        142,
        291,
        225,
        26,
        112,
        108,
        70,
        201,
        85,
        209,
        11,
        267,
        30,
        127,
        96,
        132,
        198,
        185,
        210,
        144,
        220,
        166,
        172,
        287,
        41,
        2,
        213,
        161,
        229,
        258,
        43,
        283,
        254,
        133,
        253,
        61,
        125,
        9,
        64,
        262,
        0,
        95,
        48,
        230,
        202,
        260,
        179,
        154,
        104,
        139,
        116,
        89,
        84,
        24,
        47,
        155,
        39,
        52,
        34,
        19,
        248,
        148,
        234,
        140,
        75,
        159,
        81,
        130,
        111,
        211,
        5,
        36,
        232,
        286,
        279,
        256,
        99,
        16,
        35,
        188,
        285,
        158,
        6,
        170,
        109,
        13,
        65,
        246,
        275,
        187,
        45,
        268,
        69,
        282,
        15,
        274,
        53,
        269,
        10,
        147,
        14,
        27,
        129,
        17,
        51,
        288,
        113,
        156,
        137,
        68,
        12,
        226,
        243,
        77,
        261,
        278,
        121,
        240,
        98,
        281,
        165,
        167,
        169,
        134,
        280,
        80,
        244,
        23,
        290,
        90,
        21,
        245,
        76,
        205,
        231,
        128,
        192,
        273,
        259,
        199,
        149,
        66,
        32,
        115,
        72,
        233,
        189,
        247,
        216,
        145,
        87,
        28,
        180,
        184,
        197,
        297,
        218,
        270,
        214,
        212,
        200,
        196,
        67,
        8,
        110,
        238,
        60,
        151,
        42,
        183,
        193,
        190,
        251,
        186,
        296,
        91,
        93,
        101,
        74,
        88,
        150,
        177,
        266
    ],
    "Global Optimum": 0,
    "Algorithm": "Genetic algorithm",
    "Parameters": {
        "population": 30,
        "offspring": 30,
        "mutation probability": 0.0033333333333333335,
        "crossover probability": 0.9
    },
    "Fitness": 319388,
    "Solution": [
        204,
        162,
        219,
        120,
        222,
        271,
        171,
        40,
        249,
        18,
        228,
        92,
        20,
        37,
        55,
        176,
        236,
        221,
        255,
        178,
        168,
        63,
        141,
        263,
        207,
        73,
        25,
        117,
        208,
        138,
        126,
        182,
        237,
        118,
        163,
        83,
        107,
        277,
        97,
        29,
        78,
        235,
        284,
        119,
        194,
        299,
        175,
        49,
        105,
        59,
        239,
        293,
        157,
        79,
        264,
        135,
        33,
        143,
        50,
        250,
        153,
        164,
        103,
        54,
        38,
        206,
        257,
        224,
        160,
        1,
        136,
        294,
        123,
        191,
        152,
        46,
        252,
        56,
        62,
        173,
        227,
        71,
        31,
        22,
        58,
        265,
        106,
        102,
        242,
        86,
        4,
        94,
        3,
        292,
        215,
        174,
        223,
        57,
        203,
        124,
        100,
        146,
        122,
        289,
        82,
        44,
        272,
        276,
        131,
        295,
        114,
        195,
        7,
        181,
        217,
        298,
        241,
        142,
        291,
        225,
        26,
        112,
        108,
        70,
        201,
        85,
        209,
        11,
        267,
        30,
        127,
        96,
        132,
        198,
        185,
        210,
        144,
        220,
        166,
        172,
        287,
        41,
        2,
        213,
        161,
        229,
        258,
        43,
        283,
        254,
        133,
        253,
        61,
        125,
        9,
        64,
        262,
        0,
        95,
        48,
        230,
        202,
        260,
        179,
        154,
        104,
        139,
        116,
        89,
        84,
        24,
        47,
        155,
        39,
        52,
        34,
        19,
        248,
        148,
        234,
        140,
        75,
        159,
        81,
        130,
        111,
        211,
        5,
        36,
        232,
        286,
        279,
        256,
        99,
        16,
        35,
        188,
        285,
        158,
        6,
        170,
        109,
        13,
        65,
        246,
        275,
        187,
        45,
        268,
        69,
        282,
        15,
        274,
        53,
        269,
        10,
        147,
        14,
        27,
        129,
        17,
        51,
        288,
        113,
        156,
        137,
        68,
        12,
        226,
        243,
        77,
        261,
        278,
        121,
        240,
        98,
        281,
        165,
        167,
        169,
        134,
        280,
        80,
        244,
        23,
        290,
        90,
        21,
        245,
        76,
        205,
        231,
        128,
        192,
        273,
        259,
        199,
        149,
        66,
        32,
        115,
        72,
        233,
        189,
        247,
        216,
        145,
        87,
        28,
        180,
        184,
        197,
        297,
        218,
        270,
        214,
        212,
        200,
        196,
        67,
        8,
        110,
        238,
        60,
        151,
        42,
        183,
        193,
        190,
        251,
        186,
        296,
        91,
        93,
        101,
        74,
        88,
        150,
        177,
        266
    ],
    "Nb of functions evaluations": 200010,
    "Computational time in seconds": 441.1870038509369,
    "Stopping criterion in evaluations": 200000
}